QBPP_HJ*_35_025_06_4
35 290 1
24 42 33 6 13 17 20 43 31 32 28 25 3 13 35 11 3 50 44 38 46 6 20 18 24 16 9 25 18 12 41 18 30 33 42
    0   30    0  -15   16    0  -19    0    0    0    0    0    0    0    0    0    0    0    0  -17    0   14    0    0    0  -12  -22    0    0    0   48  -34  -39    1    0
   30    0    0    0    0    0    0    0   27    0    0    0    0  -18    0    0    0    0  -48    0    0   -7  -10   -4    0    0    0    0    0    0    0    0    0    0    0
    0    0    0    0    0    0    0    0    0    0    0    0   36    0    0    0    0    0    0    0    0    0    0    0   32   39    0   19  -38    0    0  -20    0    0    0
  -15    0    0    0    0    0    0    0    0    0    0  -45    0    0    0    0   46    0    0    0  -14    0    0    0    0   18    0   13    0    0  -22   -7    0    0    0
   16    0    0    0    0    0    0    2    0    0    0    0   41    0   -7    0    0  -11    0  -27    0    0    0    0    0    0  -28   41    0    0    0    3    0  -50    0
    0    0    0    0    0    0   26   19    0    0    0  -19    0  -29    0    0    0    0    0    3    0    0  -15    0    0    0    0    0  -16    0    0  -39   11    0    0
  -19    0    0    0    0   26    0    0   23    0    1   10    0   45   13   13    0    0   -8    0    0    0    0    0   17   45    0    0    0    0    0  -33    0    0    0
    0    0    0    0    2   19    0    0    0    0    0   25    0    0    0    0   21   48  -38    0    0    0    0    0  -20    0    0  -14    0    0   34    0    0    0    0
    0   27    0    0    0    0   23    0    0    0    0   30    0    0   -6  -17    0    0    0   32    0    0   50    0    0    0    0    0    0  -33    0    0    0    0    0
    0    0    0    0    0    0    0    0    0    0    0    0    0    0    0    0    0    0    0    0    0    0    0    0  -24    0    1    0    0    0    0    0    0    0  -22
    0    0    0    0    0    0    1    0    0    0    0    0    0  -27    0    0    0    0    0    0   14    0    0  -39    0    0  -37    0    0    0    0    0    0    0  -23
    0    0    0  -45    0  -19   10   25   30    0    0    0    0    0    0    0   -2    0   19    0  -12    0    0    0    0  -18    0    0    0    0  -33    0    0    0    0
    0    0   36    0   41    0    0    0    0    0    0    0    0   35  -37   -5    0    0    0    0    6    0    0    0    0    0   49    0   22    0    0    0    0    0    0
    0  -18    0    0    0  -29   45    0    0    0  -27    0   35    0    0    0    0    0    0   32    0  -28    0    0   48    0  -20    0    0    0    0    0    0    0    0
    0    0    0    0   -7    0   13    0   -6    0    0    0  -37    0    0    0    0    0  -15    0   32    0    0   15    0    0    0    0    0    0  -35    0    0    0    0
    0    0    0    0    0    0   13    0  -17    0    0    0   -5    0    0    0    5   16    0    0    0    0   30    0  -13    0  -27    0    0    6    0    0  -24    0    0
    0    0    0   46    0    0    0   21    0    0    0   -2    0    0    0    5    0   49   37    0   42    0   23  -48    0    0    0    0    0    0    0  -43    0    5    0
    0    0    0    0  -11    0    0   48    0    0    0    0    0    0    0   16   49    0    0    0   -6    0   30    0    0   36    0    0    0  -22  -48    0    0   41  -44
    0  -48    0    0    0    0   -8  -38    0    0    0   19    0    0  -15    0   37    0    0   44    0    0    0    0  -42  -29    0    0    0    0    0    2    0    0   -9
  -17    0    0    0  -27    3    0    0   32    0    0    0    0   32    0    0    0    0   44    0    0    0    0    0   33    0    0    0    0    0    0   47    0    0    0
    0    0    0  -14    0    0    0    0    0    0   14  -12    6    0   32    0   42   -6    0    0    0   -8    0   38    0    0    0    0    0    0    0    0    0  -46    0
   14   -7    0    0    0    0    0    0    0    0    0    0    0  -28    0    0    0    0    0    0   -8    0    0    0    0    0    0    0    0   46    0    0    0    0    0
    0  -10    0    0    0  -15    0    0   50    0    0    0    0    0    0   30   23   30    0    0    0    0    0    0    0  -45    0    0    0    0    0    0    0    0    0
    0   -4    0    0    0    0    0    0    0    0  -39    0    0    0   15    0  -48    0    0    0   38    0    0    0  -32   40    0    0    0    0    0  -40    0    0    0
    0    0   32    0    0    0   17  -20    0  -24    0    0    0   48    0  -13    0    0  -42   33    0    0    0  -32    0    0    0    0    0    0   15    0    0    0    0
  -12    0   39   18    0    0   45    0    0    0    0  -18    0    0    0    0    0   36  -29    0    0    0  -45   40    0    0    0    0   18    0  -28  -18    0    0    0
  -22    0    0    0  -28    0    0    0    0    1  -37    0   49  -20    0  -27    0    0    0    0    0    0    0    0    0    0    0    0    0   -8    0   32    0    6    0
    0    0   19   13   41    0    0  -14    0    0    0    0    0    0    0    0    0    0    0    0    0    0    0    0    0    0    0    0  -32   31  -35    0   17    0    0
    0    0  -38    0    0  -16    0    0    0    0    0    0   22    0    0    0    0    0    0    0    0    0    0    0    0   18    0  -32    0    0    0    0    0    0    0
    0    0    0    0    0    0    0    0  -33    0    0    0    0    0    0    6    0  -22    0    0    0   46    0    0    0    0   -8   31    0    0  -19    0    0    0    0
   48    0    0  -22    0    0    0   34    0    0    0  -33    0    0  -35    0    0  -48    0    0    0    0    0    0   15  -28    0  -35    0  -19    0    0   -6    0    0
  -34    0  -20   -7    3  -39  -33    0    0    0    0    0    0    0    0    0  -43    0    2   47    0    0    0  -40    0  -18   32    0    0    0    0    0    0    0  -35
  -39    0    0    0    0   11    0    0    0    0    0    0    0    0    0  -24    0    0    0    0    0    0    0    0    0    0    0   17    0    0   -6    0    0    0    0
    1    0    0    0  -50    0    0    0    0    0    0    0    0    0    0    0    5   41    0    0  -46    0    0    0    0    0    6    0    0    0    0    0    0    0  -20
    0    0    0    0    0    0    0    0    0  -22  -23    0    0    0    0    0    0  -44   -9    0    0    0    0    0    0    0    0    0    0    0    0  -35    0  -20    0
